(benchmark gametime
:status unknown
:logic QF_AUFBV
:extrafuns ((gtINDEX113  BitVec[32]))
:extrafuns ((gtFIELD__bitsForTID0__gtAGG____anonstruct_D_Work_4  Array[32:32]))
:extrafuns ((gtINDEX114  BitVec[32]))
:extrafuns ((gtAGG__rtDWork  BitVec[32]))
:extrafuns ((gtINDEX111  BitVec[32]))
:extrafuns ((gtINDEX112  BitVec[32]))
:extrafuns ((gtINDEX109  BitVec[32]))
:extrafuns ((gtINDEX110  BitVec[32]))
:extrafuns ((gtINDEX107  BitVec[32]))
:extrafuns ((gtINDEX108  BitVec[32]))
:extrafuns ((gtINDEX106  BitVec[32]))
:extrafuns ((gtINDEX105  BitVec[32]))
:extrafuns ((gtINDEX104  BitVec[32]))
:extrafuns ((gtINDEX103  BitVec[32]))
:extrafuns ((gtINDEX101  BitVec[32]))
:extrafuns ((gtINDEX102  BitVec[32]))
:extrafuns ((gtINDEX99  BitVec[32]))
:extrafuns ((gtINDEX100  BitVec[32]))
:extrafuns ((gtINDEX97  BitVec[32]))
:extrafuns ((gtINDEX98  BitVec[32]))
:extrafuns ((gtINDEX95  BitVec[32]))
:extrafuns ((gtINDEX96  BitVec[32]))
:extrafuns ((gtINDEX93  BitVec[32]))
:extrafuns ((gtINDEX94  BitVec[32]))
:extrafuns ((gtINDEX91  BitVec[32]))
:extrafuns ((gtINDEX92  BitVec[32]))
:extrafuns ((gtINDEX89  BitVec[32]))
:extrafuns ((gtINDEX90  BitVec[32]))
:extrafuns ((gtINDEX87  BitVec[32]))
:extrafuns ((gtINDEX88  BitVec[32]))
:extrafuns ((gtINDEX85  BitVec[32]))
:extrafuns ((gtINDEX86  BitVec[32]))
:extrafuns ((gtINDEX83  BitVec[32]))
:extrafuns ((gtINDEX84  BitVec[32]))
:extrafuns ((gtINDEX81  BitVec[32]))
:extrafuns ((gtINDEX82  BitVec[32]))
:extrafuns ((gtINDEX80  BitVec[32]))
:extrafuns ((gtINDEX78  BitVec[32]))
:extrafuns ((gtINDEX79  BitVec[32]))
:extrafuns ((gtINDEX76  BitVec[32]))
:extrafuns ((gtINDEX77  BitVec[32]))
:extrafuns ((gtINDEX74  BitVec[32]))
:extrafuns ((gtINDEX75  BitVec[32]))
:extrafuns ((gtINDEX72  BitVec[32]))
:extrafuns ((gtINDEX73  BitVec[32]))
:extrafuns ((gtINDEX70  BitVec[32]))
:extrafuns ((gtINDEX71  BitVec[32]))
:extrafuns ((gtINDEX68  BitVec[32]))
:extrafuns ((gtINDEX69  BitVec[32]))
:extrafuns ((gtINDEX66  BitVec[32]))
:extrafuns ((gtINDEX67  BitVec[32]))
:extrafuns ((gtINDEX65  BitVec[32]))
:extrafuns ((gtINDEX64  BitVec[32]))
:extrafuns ((gtINDEX62  BitVec[32]))
:extrafuns ((gtINDEX63  BitVec[32]))
:extrafuns ((gtINDEX60  BitVec[32]))
:extrafuns ((gtINDEX61  BitVec[32]))
:extrafuns ((gtINDEX58  BitVec[32]))
:extrafuns ((gtINDEX59  BitVec[32]))
:extrafuns ((gtINDEX57  BitVec[32]))
:extrafuns ((gtINDEX56  BitVec[32]))
:extrafuns ((gtINDEX55  BitVec[32]))
:extrafuns ((gtINDEX54  BitVec[32]))
:extrafuns ((gtINDEX53  BitVec[32]))
:extrafuns ((gtINDEX52  BitVec[32]))
:extrafuns ((gtINDEX50  BitVec[32]))
:extrafuns ((gtINDEX51  BitVec[32]))
:extrafuns ((gtINDEX48  BitVec[32]))
:extrafuns ((gtINDEX49  BitVec[32]))
:extrafuns ((gtINDEX46  BitVec[32]))
:extrafuns ((gtINDEX47  BitVec[32]))
:extrafuns ((gtINDEX44  BitVec[32]))
:extrafuns ((gtINDEX45  BitVec[32]))
:extrafuns ((gtINDEX42  BitVec[32]))
:extrafuns ((gtINDEX43  BitVec[32]))
:extrafuns ((gtINDEX40  BitVec[32]))
:extrafuns ((gtINDEX41  BitVec[32]))
:extrafuns ((gtINDEX38  BitVec[32]))
:extrafuns ((gtINDEX39  BitVec[32]))
:extrafuns ((gtINDEX36  BitVec[32]))
:extrafuns ((gtINDEX37  BitVec[32]))
:extrafuns ((gtINDEX34  BitVec[32]))
:extrafuns ((gtINDEX35  BitVec[32]))
:extrafuns ((gtINDEX32  BitVec[32]))
:extrafuns ((gtINDEX33  BitVec[32]))
:extrafuns ((gtINDEX30  BitVec[32]))
:extrafuns ((gtINDEX31  BitVec[32]))
:extrafuns ((gtINDEX29  BitVec[32]))
:extrafuns ((gtINDEX27  BitVec[32]))
:extrafuns ((gtINDEX28  BitVec[32]))
:extrafuns ((gtINDEX25  BitVec[32]))
:extrafuns ((gtINDEX26  BitVec[32]))
:extrafuns ((gtINDEX23  BitVec[32]))
:extrafuns ((gtINDEX24  BitVec[32]))
:extrafuns ((gtINDEX21  BitVec[32]))
:extrafuns ((gtINDEX22  BitVec[32]))
:extrafuns ((gtINDEX19  BitVec[32]))
:extrafuns ((gtINDEX20  BitVec[32]))
:extrafuns ((gtINDEX17  BitVec[32]))
:extrafuns ((gtINDEX18  BitVec[32]))
:extrafuns ((gtINDEX15  BitVec[32]))
:extrafuns ((gtINDEX16  BitVec[32]))
:extrafuns ((gtINDEX14  BitVec[32]))
:extrafuns ((gtINDEX13  BitVec[32]))
:extrafuns ((gtINDEX11  BitVec[32]))
:extrafuns ((gtINDEX12  BitVec[32]))
:extrafuns ((gtINDEX9  BitVec[32]))
:extrafuns ((gtINDEX10  BitVec[32]))
:extrafuns ((gtINDEX7  BitVec[32]))
:extrafuns ((gtINDEX8  BitVec[32]))
:extrafuns ((gtINDEX6  BitVec[32]))
:extrafuns ((gtINDEX5  BitVec[32]))
:extrafuns ((gtINDEX4  BitVec[32]))
:extrafuns ((gtINDEX3  BitVec[32]))
:extrafuns ((gtINDEX2  BitVec[32]))
:extrafuns ((gtINDEX1  BitVec[32]))
:extrafuns ((gtINDEX0  BitVec[32]))
:extrafuns ((gtFIELD__is_Eng__gtAGG____anonstruct_bitsForTID0_5_1_  Array[32:1]))
:extrafuns ((gtFIELD__is_Eng__gtAGG____anonstruct_bitsForTID0_5_2_  Array[32:1]))
:extrafuns ((sf_previousEvent_1_  BitVec[32]))
:extrafuns ((sfEvent__2_  BitVec[32]))
:extrafuns ((gtFIELD__is_Eng__gtAGG____anonstruct_bitsForTID0_5  Array[32:1]))
:extrafuns ((gtFIELD__sent__gtAGG____anonstruct_D_Work_4_1_  Array[32:32]))
:extrafuns ((gtFIELD__sent__gtAGG____anonstruct_D_Work_4_2_  Array[32:32]))
:extrafuns ((gtFIELD__is_active_Eng__gtAGG____anonstruct_bitsForTID0_5  Array[32:1]))
:extrafuns ((gtFIELD__is_PURI__gtAGG____anonstruct_bitsForTID0_5_1_  Array[32:2]))
:extrafuns ((gtFIELD__is_PURI__gtAGG____anonstruct_bitsForTID0_5_2_  Array[32:2]))
:extrafuns ((gtFIELD__is_active_PURI__gtAGG____anonstruct_bitsForTID0_5  Array[32:1]))
:extrafuns ((gtFIELD__is_PVRP__gtAGG____anonstruct_bitsForTID0_5_1_  Array[32:2]))
:extrafuns ((gtFIELD__is_PVRP__gtAGG____anonstruct_bitsForTID0_5_2_  Array[32:2]))
:extrafuns ((gtFIELD__is_active_PVRP__gtAGG____anonstruct_bitsForTID0_5  Array[32:1]))
:extrafuns ((gtFIELD__is_PPVARP__gtAGG____anonstruct_bitsForTID0_5  Array[32:2]))
:extrafuns ((gtFIELD__is_active_PPVARP__gtAGG____anonstruct_bitsForTID0_5  Array[32:1]))
:extrafuns ((sfEvent__1_  BitVec[32]))
:extrafuns ((gtFIELD__is_PLRI__gtAGG____anonstruct_bitsForTID0_5  Array[32:2]))
:extrafuns ((gtFIELD__is_active_PLRI__gtAGG____anonstruct_bitsForTID0_5  Array[32:1]))
:extrafuns ((gtFIELD__is_PAVI__gtAGG____anonstruct_bitsForTID0_5  Array[32:3]))
:extrafuns ((gtFIELD__is_active_PAVI__gtAGG____anonstruct_bitsForTID0_5  Array[32:1]))
:extrafuns ((sfEvent_  BitVec[32]))
:extrafuns ((gtFIELD__sent__gtAGG____anonstruct_D_Work_4  Array[32:32]))
:extrafuns ((gtFIELD__is_PURI__gtAGG____anonstruct_bitsForTID0_5  Array[32:2]))
:extrafuns ((gtFIELD__is_PVRP__gtAGG____anonstruct_bitsForTID0_5  Array[32:2]))
:extrafuns ((gtFIELD__temporalCounter_i5__gtAGG____anonstruct_D_Work_4  Array[32:32]))
:extrafuns ((gtFIELD__temporalCounter_i5__gtAGG____anonstruct_D_Work_4_1_  Array[32:32]))
:extrafuns ((gtFIELD__temporalCounter_i4__gtAGG____anonstruct_D_Work_4  Array[32:32]))
:extrafuns ((gtFIELD__temporalCounter_i3__gtAGG____anonstruct_D_Work_4  Array[32:32]))
:extrafuns ((gtFIELD__temporalCounter_i2__gtAGG____anonstruct_D_Work_4  Array[32:32]))
:extrafuns ((gtFIELD__temporalCounter_i1__gtAGG____anonstruct_D_Work_4  Array[32:32]))
:extrapreds ((constraint193 ))
:extrapreds ((constraint192 ))
:extrapreds ((constraint191 ))
:extrapreds ((constraint190 ))
:extrapreds ((constraint189 ))
:extrapreds ((constraint188 ))
:extrapreds ((constraint187 ))
:extrapreds ((constraint186 ))
:extrapreds ((constraint185 ))
:extrapreds ((constraint184 ))
:extrapreds ((constraint183 ))
:extrapreds ((constraint182 ))
:extrapreds ((constraint181 ))
:extrapreds ((constraint180 ))
:extrapreds ((constraint179 ))
:extrapreds ((constraint178 ))
:extrapreds ((constraint177 ))
:extrapreds ((constraint176 ))
:extrapreds ((constraint175 ))
:extrapreds ((constraint174 ))
:extrapreds ((constraint173 ))
:extrapreds ((constraint172 ))
:extrapreds ((constraint171 ))
:extrapreds ((constraint170 ))
:extrapreds ((constraint169 ))
:extrapreds ((constraint168 ))
:extrapreds ((constraint167 ))
:extrapreds ((constraint166 ))
:extrapreds ((constraint165 ))
:extrapreds ((constraint164 ))
:extrapreds ((constraint163 ))
:extrapreds ((constraint162 ))
:extrapreds ((constraint161 ))
:extrapreds ((constraint160 ))
:extrapreds ((constraint159 ))
:extrapreds ((constraint158 ))
:extrapreds ((constraint157 ))
:extrapreds ((constraint156 ))
:extrapreds ((constraint155 ))
:extrapreds ((constraint154 ))
:extrapreds ((constraint153 ))
:extrapreds ((constraint152 ))
:extrapreds ((constraint151 ))
:extrapreds ((constraint150 ))
:extrapreds ((constraint149 ))
:extrapreds ((constraint148 ))
:extrapreds ((constraint147 ))
:extrapreds ((constraint146 ))
:extrapreds ((constraint145 ))
:extrapreds ((constraint144 ))
:extrapreds ((constraint143 ))
:extrapreds ((constraint142 ))
:extrapreds ((constraint141 ))
:extrapreds ((constraint140 ))
:extrapreds ((constraint139 ))
:extrapreds ((constraint138 ))
:extrapreds ((constraint137 ))
:extrapreds ((constraint136 ))
:extrapreds ((constraint135 ))
:extrapreds ((constraint134 ))
:extrapreds ((constraint133 ))
:extrapreds ((constraint132 ))
:extrapreds ((constraint131 ))
:extrapreds ((constraint130 ))
:extrapreds ((constraint129 ))
:extrapreds ((constraint128 ))
:extrapreds ((constraint127 ))
:extrapreds ((constraint126 ))
:extrapreds ((constraint125 ))
:extrapreds ((constraint124 ))
:extrapreds ((constraint123 ))
:extrapreds ((constraint122 ))
:extrapreds ((constraint121 ))
:extrapreds ((constraint120 ))
:extrapreds ((constraint119 ))
:extrapreds ((constraint118 ))
:extrapreds ((constraint117 ))
:extrapreds ((constraint116 ))
:extrapreds ((constraint115 ))
:extrapreds ((constraint114 ))
:extrapreds ((constraint113 ))
:extrapreds ((constraint112 ))
:extrapreds ((constraint111 ))
:extrapreds ((constraint110 ))
:extrapreds ((constraint109 ))
:extrapreds ((constraint108 ))
:extrapreds ((constraint107 ))
:extrapreds ((constraint106 ))
:extrapreds ((constraint105 ))
:extrapreds ((constraint104 ))
:extrapreds ((constraint103 ))
:extrapreds ((constraint102 ))
:extrapreds ((constraint101 ))
:extrapreds ((constraint100 ))
:extrapreds ((constraint99 ))
:extrapreds ((constraint98 ))
:extrapreds ((constraint97 ))
:extrapreds ((constraint96 ))
:extrapreds ((constraint95 ))
:extrapreds ((constraint94 ))
:extrapreds ((constraint93 ))
:extrapreds ((constraint92 ))
:extrapreds ((constraint91 ))
:extrapreds ((constraint90 ))
:extrapreds ((constraint89 ))
:extrapreds ((constraint88 ))
:extrapreds ((constraint87 ))
:extrapreds ((constraint86 ))
:extrapreds ((constraint85 ))
:extrapreds ((constraint84 ))
:extrapreds ((constraint83 ))
:extrapreds ((constraint82 ))
:extrapreds ((constraint81 ))
:extrapreds ((constraint80 ))
:extrapreds ((constraint79 ))
:extrapreds ((constraint78 ))
:extrapreds ((constraint77 ))
:extrapreds ((constraint76 ))
:extrapreds ((constraint75 ))
:extrapreds ((constraint74 ))
:extrapreds ((constraint73 ))
:extrapreds ((constraint72 ))
:extrapreds ((constraint71 ))
:extrapreds ((constraint70 ))
:extrapreds ((constraint69 ))
:extrapreds ((constraint68 ))
:extrapreds ((constraint67 ))
:extrapreds ((constraint66 ))
:extrapreds ((constraint65 ))
:extrapreds ((constraint64 ))
:extrapreds ((constraint63 ))
:extrapreds ((constraint62 ))
:extrapreds ((constraint61 ))
:extrapreds ((constraint60 ))
:extrapreds ((constraint59 ))
:extrapreds ((constraint58 ))
:extrapreds ((constraint57 ))
:extrapreds ((constraint56 ))
:extrapreds ((constraint55 ))
:extrapreds ((constraint54 ))
:extrapreds ((constraint53 ))
:extrapreds ((constraint52 ))
:extrapreds ((constraint51 ))
:extrapreds ((constraint50 ))
:extrapreds ((constraint49 ))
:extrapreds ((constraint48 ))
:extrapreds ((constraint47 ))
:extrapreds ((constraint46 ))
:extrapreds ((constraint45 ))
:extrapreds ((constraint44 ))
:extrapreds ((constraint43 ))
:extrapreds ((constraint42 ))
:extrapreds ((constraint41 ))
:extrapreds ((constraint40 ))
:extrapreds ((constraint39 ))
:extrapreds ((constraint38 ))
:extrapreds ((constraint37 ))
:extrapreds ((constraint36 ))
:extrapreds ((constraint35 ))
:extrapreds ((constraint34 ))
:extrapreds ((constraint33 ))
:extrapreds ((constraint32 ))
:extrapreds ((constraint31 ))
:extrapreds ((constraint30 ))
:extrapreds ((constraint29 ))
:extrapreds ((constraint28 ))
:extrapreds ((constraint27 ))
:extrapreds ((constraint26 ))
:extrapreds ((constraint25 ))
:extrapreds ((constraint24 ))
:extrapreds ((constraint23 ))
:extrapreds ((constraint22 ))
:extrapreds ((constraint21 ))
:extrapreds ((constraint20 ))
:extrapreds ((constraint19 ))
:extrapreds ((constraint18 ))
:extrapreds ((constraint17 ))
:extrapreds ((constraint16 ))
:extrapreds ((constraint15 ))
:extrapreds ((constraint14 ))
:extrapreds ((constraint13 ))
:extrapreds ((constraint12 ))
:extrapreds ((constraint11 ))
:extrapreds ((constraint10 ))
:extrapreds ((constraint9 ))
:extrapreds ((constraint8 ))
:extrapreds ((constraint7 ))
:extrapreds ((constraint6 ))
:extrapreds ((constraint5 ))
:extrapreds ((constraint4 ))
:extrapreds ((constraint3 ))
:extrapreds ((constraint2 ))
:extrapreds ((constraint1 ))
:extrapreds ((constraint0 ))
:formula
(flet ($x970 (and constraint0 constraint1 constraint2 constraint3 constraint4 constraint5 constraint6 constraint7 constraint8 constraint9 constraint10 constraint11 constraint12 constraint13 constraint14 constraint15 constraint16 constraint17 constraint18 constraint19 constraint20 constraint21 constraint22 constraint23 constraint24 constraint25 constraint26 constraint27 constraint28 constraint29 constraint30 constraint31 constraint32 constraint33 constraint34 constraint35 constraint36 constraint37 constraint38 constraint39 constraint40 constraint41 constraint42 constraint43 constraint44 constraint45 constraint46 constraint47 constraint48 constraint49 constraint50 constraint51 constraint52 constraint53 constraint54 constraint55 constraint56 constraint57 constraint58 constraint59 constraint60 constraint61 constraint62 constraint63 constraint64 constraint65 constraint66 constraint67 constraint68 constraint69 constraint70 constraint71 constraint72 constraint73 constraint74 constraint75 constraint76 constraint77 constraint78 constraint79 constraint80 constraint81 constraint82 constraint83 constraint84 constraint85 constraint86 constraint87 constraint88 constraint89 constraint90 constraint91 constraint92 constraint93 constraint94 constraint95 constraint96 constraint97 constraint98 constraint99 constraint100 constraint101 constraint102 constraint103 constraint104 constraint105 constraint106 constraint107 constraint108 constraint109 constraint110 constraint111 constraint112 constraint113 constraint114 constraint115 constraint116 constraint117 constraint118 constraint119 constraint120 constraint121 constraint122 constraint123 constraint124 constraint125 constraint126 constraint127 constraint128 constraint129 constraint130 constraint131 constraint132 constraint133 constraint134 constraint135 constraint136 constraint137 constraint138 constraint139 constraint140 constraint141 constraint142 constraint143 constraint144 constraint145 constraint146 constraint147 constraint148 constraint149 constraint150 constraint151 constraint152 constraint153 constraint154 constraint155 constraint156 constraint157 constraint158 constraint159 constraint160 constraint161 constraint162 constraint163 constraint164 constraint165 constraint166 constraint167 constraint168 constraint169 constraint170 constraint171 constraint172 constraint173 constraint174 constraint175 constraint176 constraint177 constraint178 constraint179 constraint180 constraint181 constraint182 constraint183 constraint184 constraint185 constraint186 constraint187 constraint188 constraint189 constraint190 constraint191 constraint192 constraint193))
(let (?x579 (select gtFIELD__bitsForTID0__gtAGG____anonstruct_D_Work_4 gtINDEX113))
(let (?x575 (select gtFIELD__bitsForTID0__gtAGG____anonstruct_D_Work_4 gtINDEX111))
(let (?x571 (select gtFIELD__bitsForTID0__gtAGG____anonstruct_D_Work_4 gtINDEX109))
(let (?x567 (select gtFIELD__bitsForTID0__gtAGG____anonstruct_D_Work_4 gtINDEX107))
(let (?x559 (select gtFIELD__bitsForTID0__gtAGG____anonstruct_D_Work_4 gtINDEX101))
(flet ($x556 (= gtINDEX100 (select gtFIELD__bitsForTID0__gtAGG____anonstruct_D_Work_4 gtINDEX99)))
(flet ($x552 (= gtINDEX98 (select gtFIELD__bitsForTID0__gtAGG____anonstruct_D_Work_4 gtINDEX97)))
(flet ($x548 (= gtINDEX96 (select gtFIELD__bitsForTID0__gtAGG____anonstruct_D_Work_4 gtINDEX95)))
(flet ($x544 (= gtINDEX94 (select gtFIELD__bitsForTID0__gtAGG____anonstruct_D_Work_4 gtINDEX93)))
(flet ($x540 (= gtINDEX92 (select gtFIELD__bitsForTID0__gtAGG____anonstruct_D_Work_4 gtINDEX91)))
(flet ($x536 (= gtINDEX90 (select gtFIELD__bitsForTID0__gtAGG____anonstruct_D_Work_4 gtINDEX89)))
(flet ($x532 (= gtINDEX88 (select gtFIELD__bitsForTID0__gtAGG____anonstruct_D_Work_4 gtINDEX87)))
(flet ($x528 (= gtINDEX86 (select gtFIELD__bitsForTID0__gtAGG____anonstruct_D_Work_4 gtINDEX85)))
(flet ($x524 (= gtINDEX84 (select gtFIELD__bitsForTID0__gtAGG____anonstruct_D_Work_4 gtINDEX83)))
(flet ($x520 (= gtINDEX82 (select gtFIELD__bitsForTID0__gtAGG____anonstruct_D_Work_4 gtINDEX81)))
(flet ($x515 (= gtINDEX79 (select gtFIELD__bitsForTID0__gtAGG____anonstruct_D_Work_4 gtINDEX78)))
(flet ($x511 (= gtINDEX77 (select gtFIELD__bitsForTID0__gtAGG____anonstruct_D_Work_4 gtINDEX76)))
(flet ($x507 (= gtINDEX75 (select gtFIELD__bitsForTID0__gtAGG____anonstruct_D_Work_4 gtINDEX74)))
(flet ($x503 (= gtINDEX73 (select gtFIELD__bitsForTID0__gtAGG____anonstruct_D_Work_4 gtINDEX72)))
(flet ($x499 (= gtINDEX71 (select gtFIELD__bitsForTID0__gtAGG____anonstruct_D_Work_4 gtINDEX70)))
(flet ($x495 (= gtINDEX69 (select gtFIELD__bitsForTID0__gtAGG____anonstruct_D_Work_4 gtINDEX68)))
(flet ($x491 (= gtINDEX67 (select gtFIELD__bitsForTID0__gtAGG____anonstruct_D_Work_4 gtINDEX66)))
(flet ($x485 (= gtINDEX63 (select gtFIELD__bitsForTID0__gtAGG____anonstruct_D_Work_4 gtINDEX62)))
(flet ($x481 (= gtINDEX61 (select gtFIELD__bitsForTID0__gtAGG____anonstruct_D_Work_4 gtINDEX60)))
(flet ($x477 (= gtINDEX59 (select gtFIELD__bitsForTID0__gtAGG____anonstruct_D_Work_4 gtINDEX58)))
(flet ($x467 (= gtINDEX51 (select gtFIELD__bitsForTID0__gtAGG____anonstruct_D_Work_4 gtINDEX50)))
(flet ($x463 (= gtINDEX49 (select gtFIELD__bitsForTID0__gtAGG____anonstruct_D_Work_4 gtINDEX48)))
(flet ($x459 (= gtINDEX47 (select gtFIELD__bitsForTID0__gtAGG____anonstruct_D_Work_4 gtINDEX46)))
(flet ($x455 (= gtINDEX45 (select gtFIELD__bitsForTID0__gtAGG____anonstruct_D_Work_4 gtINDEX44)))
(flet ($x451 (= gtINDEX43 (select gtFIELD__bitsForTID0__gtAGG____anonstruct_D_Work_4 gtINDEX42)))
(flet ($x447 (= gtINDEX41 (select gtFIELD__bitsForTID0__gtAGG____anonstruct_D_Work_4 gtINDEX40)))
(flet ($x443 (= gtINDEX39 (select gtFIELD__bitsForTID0__gtAGG____anonstruct_D_Work_4 gtINDEX38)))
(flet ($x439 (= gtINDEX37 (select gtFIELD__bitsForTID0__gtAGG____anonstruct_D_Work_4 gtINDEX36)))
(flet ($x435 (= gtINDEX35 (select gtFIELD__bitsForTID0__gtAGG____anonstruct_D_Work_4 gtINDEX34)))
(flet ($x431 (= gtINDEX33 (select gtFIELD__bitsForTID0__gtAGG____anonstruct_D_Work_4 gtINDEX32)))
(flet ($x427 (= gtINDEX31 (select gtFIELD__bitsForTID0__gtAGG____anonstruct_D_Work_4 gtINDEX30)))
(flet ($x422 (= gtINDEX28 (select gtFIELD__bitsForTID0__gtAGG____anonstruct_D_Work_4 gtINDEX27)))
(flet ($x418 (= gtINDEX26 (select gtFIELD__bitsForTID0__gtAGG____anonstruct_D_Work_4 gtINDEX25)))
(flet ($x414 (= gtINDEX24 (select gtFIELD__bitsForTID0__gtAGG____anonstruct_D_Work_4 gtINDEX23)))
(flet ($x410 (= gtINDEX22 (select gtFIELD__bitsForTID0__gtAGG____anonstruct_D_Work_4 gtINDEX21)))
(flet ($x406 (= gtINDEX20 (select gtFIELD__bitsForTID0__gtAGG____anonstruct_D_Work_4 gtINDEX19)))
(flet ($x402 (= gtINDEX18 (select gtFIELD__bitsForTID0__gtAGG____anonstruct_D_Work_4 gtINDEX17)))
(flet ($x398 (= gtINDEX16 (select gtFIELD__bitsForTID0__gtAGG____anonstruct_D_Work_4 gtINDEX15)))
(flet ($x392 (= gtINDEX12 (select gtFIELD__bitsForTID0__gtAGG____anonstruct_D_Work_4 gtINDEX11)))
(flet ($x388 (= gtINDEX10 (select gtFIELD__bitsForTID0__gtAGG____anonstruct_D_Work_4 gtINDEX9)))
(flet ($x384 (= gtINDEX8 (select gtFIELD__bitsForTID0__gtAGG____anonstruct_D_Work_4 gtINDEX7)))
(let (?x361 (extract[0:0] bv1[32]))
(let (?x371 (store gtFIELD__is_Eng__gtAGG____anonstruct_bitsForTID0_5_1_ gtINDEX114 ?x361))
(flet ($x738 (iff constraint78 (= gtFIELD__is_Eng__gtAGG____anonstruct_bitsForTID0_5_2_ ?x371)))
(let (?x367 (select gtFIELD__is_Eng__gtAGG____anonstruct_bitsForTID0_5_1_ gtINDEX112))
(let (?x362 (store gtFIELD__is_Eng__gtAGG____anonstruct_bitsForTID0_5 gtINDEX110 ?x361))
(flet ($x732 (iff constraint75 (= gtFIELD__is_Eng__gtAGG____anonstruct_bitsForTID0_5_1_ ?x362)))
(let (?x357 (select gtFIELD__is_Eng__gtAGG____anonstruct_bitsForTID0_5 gtINDEX108))
(let (?x354 (store gtFIELD__sent__gtAGG____anonstruct_D_Work_4_1_ gtINDEX106 bv0[32]))
(flet ($x728 (iff constraint73 (= gtFIELD__sent__gtAGG____anonstruct_D_Work_4_2_ ?x354)))
(let (?x210 (bvmul bv4294967295[32] bv1[32]))
(flet ($x352 (= (select gtFIELD__sent__gtAGG____anonstruct_D_Work_4_1_ gtINDEX105) ?x210))
(flet ($x348 (= (select gtFIELD__sent__gtAGG____anonstruct_D_Work_4_1_ gtINDEX104) bv9[32]))
(flet ($x344 (= (select gtFIELD__sent__gtAGG____anonstruct_D_Work_4_1_ gtINDEX103) bv4[32]))
(let (?x339 (select gtFIELD__is_Eng__gtAGG____anonstruct_bitsForTID0_5 gtINDEX102))
(let (?x334 (select gtFIELD__is_active_Eng__gtAGG____anonstruct_bitsForTID0_5 gtINDEX100))
(let (?x169 (extract[1:0] bv0[32]))
(let (?x331 (store gtFIELD__is_PURI__gtAGG____anonstruct_bitsForTID0_5_1_ gtINDEX98 ?x169))
(flet ($x716 (iff constraint67 (= gtFIELD__is_PURI__gtAGG____anonstruct_bitsForTID0_5_2_ ?x331)))
(let (?x326 (select gtFIELD__is_PURI__gtAGG____anonstruct_bitsForTID0_5_1_ gtINDEX96))
(let (?x321 (select gtFIELD__is_PURI__gtAGG____anonstruct_bitsForTID0_5_1_ gtINDEX94))
(let (?x316 (select gtFIELD__is_active_PURI__gtAGG____anonstruct_bitsForTID0_5 gtINDEX92))
(let (?x313 (store gtFIELD__is_PVRP__gtAGG____anonstruct_bitsForTID0_5_1_ gtINDEX90 ?x169))
(flet ($x708 (iff constraint63 (= gtFIELD__is_PVRP__gtAGG____anonstruct_bitsForTID0_5_2_ ?x313)))
(let (?x308 (select gtFIELD__is_PVRP__gtAGG____anonstruct_bitsForTID0_5_1_ gtINDEX88))
(let (?x303 (select gtFIELD__is_PVRP__gtAGG____anonstruct_bitsForTID0_5_1_ gtINDEX86))
(let (?x298 (select gtFIELD__is_PVRP__gtAGG____anonstruct_bitsForTID0_5_1_ gtINDEX84))
(let (?x293 (select gtFIELD__is_active_PVRP__gtAGG____anonstruct_bitsForTID0_5 gtINDEX82))
(flet ($x290 (= (select gtFIELD__sent__gtAGG____anonstruct_D_Work_4_1_ gtINDEX80) bv0[32]))
(let (?x285 (select gtFIELD__is_PPVARP__gtAGG____anonstruct_bitsForTID0_5 gtINDEX79))
(let (?x280 (select gtFIELD__is_PPVARP__gtAGG____anonstruct_bitsForTID0_5 gtINDEX77))
(let (?x275 (select gtFIELD__is_PPVARP__gtAGG____anonstruct_bitsForTID0_5 gtINDEX75))
(let (?x270 (select gtFIELD__is_active_PPVARP__gtAGG____anonstruct_bitsForTID0_5 gtINDEX73))
(let (?x264 (select gtFIELD__is_PLRI__gtAGG____anonstruct_bitsForTID0_5 gtINDEX71))
(let (?x259 (select gtFIELD__is_PLRI__gtAGG____anonstruct_bitsForTID0_5 gtINDEX69))
(let (?x254 (select gtFIELD__is_active_PLRI__gtAGG____anonstruct_bitsForTID0_5 gtINDEX67))
(flet ($x249 (= (select gtFIELD__sent__gtAGG____anonstruct_D_Work_4_1_ gtINDEX65) bv0[32]))
(flet ($x245 (= (select gtFIELD__sent__gtAGG____anonstruct_D_Work_4_1_ gtINDEX64) bv0[32]))
(let (?x240 (select gtFIELD__is_PAVI__gtAGG____anonstruct_bitsForTID0_5 gtINDEX63))
(let (?x235 (select gtFIELD__is_PAVI__gtAGG____anonstruct_bitsForTID0_5 gtINDEX61))
(let (?x230 (select gtFIELD__is_active_PAVI__gtAGG____anonstruct_bitsForTID0_5 gtINDEX59))
(flet ($x222 (= gtFIELD__sent__gtAGG____anonstruct_D_Work_4_1_ (store gtFIELD__sent__gtAGG____anonstruct_D_Work_4 gtINDEX57 ?x210)))
(flet ($x219 (= (select gtFIELD__sent__gtAGG____anonstruct_D_Work_4 gtINDEX56) bv2[32]))
(flet ($x215 (= (select gtFIELD__sent__gtAGG____anonstruct_D_Work_4 gtINDEX55) bv1[32]))
(flet ($x211 (= (select gtFIELD__sent__gtAGG____anonstruct_D_Work_4 gtINDEX54) ?x210))
(flet ($x206 (= (select gtFIELD__sent__gtAGG____anonstruct_D_Work_4 gtINDEX53) bv9[32]))
(flet ($x201 (= (select gtFIELD__sent__gtAGG____anonstruct_D_Work_4 gtINDEX52) bv4[32]))
(let (?x197 (zero_extend[31] (select gtFIELD__is_Eng__gtAGG____anonstruct_bitsForTID0_5 gtINDEX51)))
(let (?x191 (select gtFIELD__is_active_Eng__gtAGG____anonstruct_bitsForTID0_5 gtINDEX49))
(let (?x188 (store gtFIELD__is_PURI__gtAGG____anonstruct_bitsForTID0_5 gtINDEX47 ?x169))
(flet ($x644 (iff constraint31 (= gtFIELD__is_PURI__gtAGG____anonstruct_bitsForTID0_5_1_ ?x188)))
(let (?x183 (select gtFIELD__is_PURI__gtAGG____anonstruct_bitsForTID0_5 gtINDEX45))
(let (?x178 (select gtFIELD__is_PURI__gtAGG____anonstruct_bitsForTID0_5 gtINDEX43))
(let (?x173 (select gtFIELD__is_active_PURI__gtAGG____anonstruct_bitsForTID0_5 gtINDEX41))
(let (?x170 (store gtFIELD__is_PVRP__gtAGG____anonstruct_bitsForTID0_5 gtINDEX39 ?x169))
(flet ($x636 (iff constraint27 (= gtFIELD__is_PVRP__gtAGG____anonstruct_bitsForTID0_5_1_ ?x170)))
(let (?x164 (select gtFIELD__is_PVRP__gtAGG____anonstruct_bitsForTID0_5 gtINDEX37))
(let (?x159 (select gtFIELD__is_PVRP__gtAGG____anonstruct_bitsForTID0_5 gtINDEX35))
(let (?x154 (select gtFIELD__is_PVRP__gtAGG____anonstruct_bitsForTID0_5 gtINDEX33))
(let (?x149 (select gtFIELD__is_active_PVRP__gtAGG____anonstruct_bitsForTID0_5 gtINDEX31))
(flet ($x146 (= (select gtFIELD__sent__gtAGG____anonstruct_D_Work_4 gtINDEX29) bv0[32]))
(let (?x140 (select gtFIELD__is_PPVARP__gtAGG____anonstruct_bitsForTID0_5 gtINDEX28))
(let (?x135 (select gtFIELD__is_PPVARP__gtAGG____anonstruct_bitsForTID0_5 gtINDEX26))
(let (?x130 (select gtFIELD__is_PPVARP__gtAGG____anonstruct_bitsForTID0_5 gtINDEX24))
(let (?x125 (select gtFIELD__is_active_PPVARP__gtAGG____anonstruct_bitsForTID0_5 gtINDEX22))
(let (?x118 (select gtFIELD__is_PLRI__gtAGG____anonstruct_bitsForTID0_5 gtINDEX20))
(let (?x113 (select gtFIELD__is_PLRI__gtAGG____anonstruct_bitsForTID0_5 gtINDEX18))
(let (?x108 (select gtFIELD__is_active_PLRI__gtAGG____anonstruct_bitsForTID0_5 gtINDEX16))
(flet ($x102 (= (select gtFIELD__sent__gtAGG____anonstruct_D_Work_4 gtINDEX14) bv0[32]))
(flet ($x98 (= (select gtFIELD__sent__gtAGG____anonstruct_D_Work_4 gtINDEX13) bv0[32]))
(let (?x92 (select gtFIELD__is_PAVI__gtAGG____anonstruct_bitsForTID0_5 gtINDEX12))
(let (?x87 (select gtFIELD__is_PAVI__gtAGG____anonstruct_bitsForTID0_5 gtINDEX10))
(let (?x81 (select gtFIELD__is_active_PAVI__gtAGG____anonstruct_bitsForTID0_5 gtINDEX8))
(let (?x75 (select gtFIELD__temporalCounter_i5__gtAGG____anonstruct_D_Work_4 gtINDEX5))
(let (?x78 (store gtFIELD__temporalCounter_i5__gtAGG____anonstruct_D_Work_4 gtINDEX6 (bvadd ?x75 bv1[32])))
(flet ($x594 (iff constraint6 (= gtFIELD__temporalCounter_i5__gtAGG____anonstruct_D_Work_4_1_ ?x78)))
(let (?x71 (select gtFIELD__temporalCounter_i5__gtAGG____anonstruct_D_Work_4 gtINDEX4))
(let (?x67 (select gtFIELD__temporalCounter_i4__gtAGG____anonstruct_D_Work_4 gtINDEX3))
(let (?x63 (select gtFIELD__temporalCounter_i3__gtAGG____anonstruct_D_Work_4 gtINDEX2))
(let (?x59 (select gtFIELD__temporalCounter_i2__gtAGG____anonstruct_D_Work_4 gtINDEX1))
(let (?x54 (select gtFIELD__temporalCounter_i1__gtAGG____anonstruct_D_Work_4 gtINDEX0))
(flet ($x969 (and (iff constraint0 (= sfEvent_ bv8[32])) (iff constraint1 (not (bvult ?x54 bv4294967295[32]))) (iff constraint2 (not (bvult ?x59 bv4294967295[32]))) (iff constraint3 (not (bvult ?x63 bv4294967295[32]))) (iff constraint4 (not (bvult ?x67 bv4294967295[32]))) (iff constraint5 (bvult ?x71 bv4294967295[32])) $x594 (iff constraint7 (not (= (zero_extend[31] ?x81) bv0[32]))) (iff constraint8 (not (= (zero_extend[29] ?x87) bv1[32]))) (iff constraint9 (= (zero_extend[29] ?x92) bv2[32])) (iff constraint10 (not $x98)) (iff constraint11 (not $x102)) (iff constraint12 (not (= sfEvent_ bv5[32]))) (iff constraint13 (not (= (zero_extend[31] ?x108) bv0[32]))) (iff constraint14 (not (= (zero_extend[30] ?x113) bv1[32]))) (iff constraint15 (= (zero_extend[30] ?x118) bv2[32])) (iff constraint16 (not (= sfEvent_ bv4[32]))) (iff constraint17 (not (= sfEvent_ bv5[32]))) (iff constraint18 (not (= (zero_extend[31] ?x125) bv0[32]))) (iff constraint19 (not (= (zero_extend[30] ?x130) bv1[32]))) (iff constraint20 (not (= (zero_extend[30] ?x135) bv2[32]))) (iff constraint21 (= (zero_extend[30] ?x140) bv3[32])) (iff constraint22 (not $x146)) (iff constraint23 (not (= (zero_extend[31] ?x149) bv0[32]))) (iff constraint24 (not (= (zero_extend[30] ?x154) bv1[32]))) (iff constraint25 (not (= (zero_extend[30] ?x159) bv2[32]))) (iff constraint26 (not (= (zero_extend[30] ?x164) bv3[32]))) $x636 (iff constraint28 (not (= (zero_extend[31] ?x173) bv0[32]))) (iff constraint29 (not (= (zero_extend[30] ?x178) bv1[32]))) (iff constraint30 (not (= (zero_extend[30] ?x183) bv2[32]))) $x644 (iff constraint32 (not (= (zero_extend[31] ?x191) bv0[32]))) (iff constraint33 (= ?x197 bv1[32])) (iff constraint34 (not $x201)) (iff constraint35 (not $x206)) (iff constraint36 (not $x211)) (iff constraint37 (not $x215)) (iff constraint38 $x219) (iff constraint39 $x222) (iff constraint40 (= sf_previousEvent_1_ sfEvent_)) (iff constraint41 (= sfEvent__1_ bv3[32])) (iff constraint42 (not (= sfEvent__1_ bv8[32]))) (iff constraint43 (not (= (zero_extend[31] ?x230) bv0[32]))) (iff constraint44 (not (= (zero_extend[29] ?x235) bv1[32]))) (iff constraint45 (= (zero_extend[29] ?x240) bv2[32])) (iff constraint46 (not $x245)) (iff constraint47 (not $x249)) (iff constraint48 (not (= sfEvent__1_ bv5[32]))) (iff constraint49 (not (= (zero_extend[31] ?x254) bv0[32]))) (iff constraint50 (not (= (zero_extend[30] ?x259) bv1[32]))) (iff constraint51 (= (zero_extend[30] ?x264) bv2[32])) (iff constraint52 (not (= sfEvent__1_ bv4[32]))) (iff constraint53 (not (= sfEvent__1_ bv5[32]))) (iff constraint54 (not (= (zero_extend[31] ?x270) bv0[32]))) (iff constraint55 (not (= (zero_extend[30] ?x275) bv1[32]))) (iff constraint56 (not (= (zero_extend[30] ?x280) bv2[32]))) (iff constraint57 (= (zero_extend[30] ?x285) bv3[32])) (iff constraint58 (not $x290)) (iff constraint59 (not (= (zero_extend[31] ?x293) bv0[32]))) (iff constraint60 (not (= (zero_extend[30] ?x298) bv1[32]))) (iff constraint61 (not (= (zero_extend[30] ?x303) bv2[32]))) (iff constraint62 (not (= (zero_extend[30] ?x308) bv3[32]))) $x708 (iff constraint64 (not (= (zero_extend[31] ?x316) bv0[32]))) (iff constraint65 (not (= (zero_extend[30] ?x321) bv1[32]))) (iff constraint66 (not (= (zero_extend[30] ?x326) bv2[32]))) $x716 (iff constraint68 (not (= (zero_extend[31] ?x334) bv0[32]))) (iff constraint69 (= (zero_extend[31] ?x339) bv1[32])) (iff constraint70 (not $x344)) (iff constraint71 (not $x348)) (iff constraint72 $x352) $x728 (iff constraint74 (= (zero_extend[31] ?x357) bv1[32])) $x732 (iff constraint76 (= sfEvent__2_ sf_previousEvent_1_)) (iff constraint77 (= (zero_extend[31] ?x367) bv1[32])) $x738 (iff constraint79 (= gtINDEX0 gtAGG__rtDWork)) (iff constraint80 (= gtINDEX1 gtAGG__rtDWork)) (iff constraint81 (= gtINDEX2 gtAGG__rtDWork)) (iff constraint82 (= gtINDEX3 gtAGG__rtDWork)) (iff constraint83 (= gtINDEX4 gtAGG__rtDWork)) (iff constraint84 (= gtINDEX5 gtAGG__rtDWork)) (iff constraint85 (= gtINDEX6 gtAGG__rtDWork)) (iff constraint86 (= gtINDEX7 gtAGG__rtDWork)) (iff constraint87 $x384) (iff constraint88 (= gtINDEX9 gtAGG__rtDWork)) (iff constraint89 $x388) (iff constraint90 (= gtINDEX11 gtAGG__rtDWork)) (iff constraint91 $x392) (iff constraint92 (= gtINDEX13 gtAGG__rtDWork)) (iff constraint93 (= gtINDEX14 gtAGG__rtDWork)) (iff constraint94 (= gtINDEX15 gtAGG__rtDWork)) (iff constraint95 $x398) (iff constraint96 (= gtINDEX17 gtAGG__rtDWork)) (iff constraint97 $x402) (iff constraint98 (= gtINDEX19 gtAGG__rtDWork)) (iff constraint99 $x406) (iff constraint100 (= gtINDEX21 gtAGG__rtDWork)) (iff constraint101 $x410) (iff constraint102 (= gtINDEX23 gtAGG__rtDWork)) (iff constraint103 $x414) (iff constraint104 (= gtINDEX25 gtAGG__rtDWork)) (iff constraint105 $x418) (iff constraint106 (= gtINDEX27 gtAGG__rtDWork)) (iff constraint107 $x422) (iff constraint108 (= gtINDEX29 gtAGG__rtDWork)) (iff constraint109 (= gtINDEX30 gtAGG__rtDWork)) (iff constraint110 $x427) (iff constraint111 (= gtINDEX32 gtAGG__rtDWork)) (iff constraint112 $x431) (iff constraint113 (= gtINDEX34 gtAGG__rtDWork)) (iff constraint114 $x435) (iff constraint115 (= gtINDEX36 gtAGG__rtDWork)) (iff constraint116 $x439) (iff constraint117 (= gtINDEX38 gtAGG__rtDWork)) (iff constraint118 $x443) (iff constraint119 (= gtINDEX40 gtAGG__rtDWork)) (iff constraint120 $x447) (iff constraint121 (= gtINDEX42 gtAGG__rtDWork)) (iff constraint122 $x451) (iff constraint123 (= gtINDEX44 gtAGG__rtDWork)) (iff constraint124 $x455) (iff constraint125 (= gtINDEX46 gtAGG__rtDWork)) (iff constraint126 $x459) (iff constraint127 (= gtINDEX48 gtAGG__rtDWork)) (iff constraint128 $x463) (iff constraint129 (= gtINDEX50 gtAGG__rtDWork)) (iff constraint130 $x467) (iff constraint131 (= gtINDEX52 gtAGG__rtDWork)) (iff constraint132 (= gtINDEX53 gtAGG__rtDWork)) (iff constraint133 (= gtINDEX54 gtAGG__rtDWork)) (iff constraint134 (= gtINDEX55 gtAGG__rtDWork)) (iff constraint135 (= gtINDEX56 gtAGG__rtDWork)) (iff constraint136 (= gtINDEX57 gtAGG__rtDWork)) (iff constraint137 (= gtINDEX58 gtAGG__rtDWork)) (iff constraint138 $x477) (iff constraint139 (= gtINDEX60 gtAGG__rtDWork)) (iff constraint140 $x481) (iff constraint141 (= gtINDEX62 gtAGG__rtDWork)) (iff constraint142 $x485) (iff constraint143 (= gtINDEX64 gtAGG__rtDWork)) (iff constraint144 (= gtINDEX65 gtAGG__rtDWork)) (iff constraint145 (= gtINDEX66 gtAGG__rtDWork)) (iff constraint146 $x491) (iff constraint147 (= gtINDEX68 gtAGG__rtDWork)) (iff constraint148 $x495) (iff constraint149 (= gtINDEX70 gtAGG__rtDWork)) (iff constraint150 $x499) (iff constraint151 (= gtINDEX72 gtAGG__rtDWork)) (iff constraint152 $x503) (iff constraint153 (= gtINDEX74 gtAGG__rtDWork)) (iff constraint154 $x507) (iff constraint155 (= gtINDEX76 gtAGG__rtDWork)) (iff constraint156 $x511) (iff constraint157 (= gtINDEX78 gtAGG__rtDWork)) (iff constraint158 $x515) (iff constraint159 (= gtINDEX80 gtAGG__rtDWork)) (iff constraint160 (= gtINDEX81 gtAGG__rtDWork)) (iff constraint161 $x520) (iff constraint162 (= gtINDEX83 gtAGG__rtDWork)) (iff constraint163 $x524) (iff constraint164 (= gtINDEX85 gtAGG__rtDWork)) (iff constraint165 $x528) (iff constraint166 (= gtINDEX87 gtAGG__rtDWork)) (iff constraint167 $x532) (iff constraint168 (= gtINDEX89 gtAGG__rtDWork)) (iff constraint169 $x536) (iff constraint170 (= gtINDEX91 gtAGG__rtDWork)) (iff constraint171 $x540) (iff constraint172 (= gtINDEX93 gtAGG__rtDWork)) (iff constraint173 $x544) (iff constraint174 (= gtINDEX95 gtAGG__rtDWork)) (iff constraint175 $x548) (iff constraint176 (= gtINDEX97 gtAGG__rtDWork)) (iff constraint177 $x552) (iff constraint178 (= gtINDEX99 gtAGG__rtDWork)) (iff constraint179 $x556) (iff constraint180 (= gtINDEX101 gtAGG__rtDWork)) (iff constraint181 (= gtINDEX102 ?x559)) (iff constraint182 (= gtINDEX103 gtAGG__rtDWork)) (iff constraint183 (= gtINDEX104 gtAGG__rtDWork)) (iff constraint184 (= gtINDEX105 gtAGG__rtDWork)) (iff constraint185 (= gtINDEX106 gtAGG__rtDWork)) (iff constraint186 (= gtINDEX107 gtAGG__rtDWork)) (iff constraint187 (= gtINDEX108 ?x567)) (iff constraint188 (= gtINDEX109 gtAGG__rtDWork)) (iff constraint189 (= gtINDEX110 ?x571)) (iff constraint190 (= gtINDEX111 gtAGG__rtDWork)) (iff constraint191 (= gtINDEX112 ?x575)) (iff constraint192 (= gtINDEX113 gtAGG__rtDWork)) (iff constraint193 (= gtINDEX114 ?x579))))
(and $x969 $x970)))))))))))))))))))))))))))))))))))))))))))))))))))))))))))))))))))))))))))))))))))))))))))))))))))))))))))))))))))))))))))))))))
)
